# Solution for model GasLib-40
# Objective value = 4.9139076031092671e+01
loadshed[innode_1] 0
loadshed[innode_2] 0
loadshed[innode_3] 0
loadshed[innode_4] 0
loadshed[innode_5] 0
loadshed[innode_6] 0
loadshed[innode_7] 0
loadshed[innode_8] 0
loadshed[source_1] -1.9028150811752154e-01
loadshed[source_2] 1.6635148476550476e-01
loadshed[source_3] 3.3475923259756457e-01
loadshed[sink_1] 1.1700829536644397e-01
loadshed[sink_2] 0
loadshed[sink_3] 0
loadshed[sink_4] 0
loadshed[sink_5] 0
loadshed[sink_6] 0
loadshed[sink_7] 0
loadshed[sink_8] 0
loadshed[sink_9] 0
loadshed[sink_10] 0
loadshed[sink_11] 0
loadshed[sink_12] 1
loadshed[sink_13] 0
loadshed[sink_14] 0
loadshed[sink_15] 0
loadshed[sink_16] 0
loadshed[sink_17] 0
loadshed[sink_18] 0
loadshed[sink_19] 0
loadshed[sink_20] 0
loadshed[sink_21] 1
loadshed[sink_22] 0
loadshed[sink_23] 0
loadshed[sink_24] 8.8767406067489119e-01
loadshed[sink_25] 0
loadshed[sink_26] 0
loadshed[sink_27] 0
loadshed[sink_28] 0
loadshed[sink_29] 0
flow[source_1,sink_3] 1.8817193425205124e+02
flow[innode_1,sink_16] 1.6354166666666970e+01
flow[innode_6,sink_13] 9.31106895892703
flow[sink_13,sink_14] -7.0430977077396371e+00
flow[sink_14,sink_10] -2.3397264374406305e+01
flow[sink_25,sink_26] 0
flow[sink_26,sink_9] 6.6212947369545560e+01
flow[sink_9,sink_18] 4.9858780702878889e+01
flow[sink_26,sink_4] -8.2567114036212217e+01
flow[sink_4,sink_20] -102.645172108334
flow[sink_18,sink_6] 3.3504614036212217e+01
flow[sink_25,innode_8] -1.5546360091871486e+02
flow[sink_6,sink_7] -1.3644312799982401e+01
flow[sink_6,sink_22] 3.0794760169527951e+01
flow[sink_7,sink_24] 1.8369971327127184e+00
flow[sink_22,sink_1] 1.4440593502861283e+01
flow[sink_24,sink_21] 0
flow[sink_21,sink_12] 0
flow[sink_7,sink_5] -3.1835476599361780e+01
flow[sink_5,sink_17] -4.8189643266028440e+01
flow[sink_17,sink_4] -3.7238914054551175e+00
flow[sink_17,sink_8] -6.0819918527239984e+01
flow[sink_3,sink_23] 16.3541666666697
flow[sink_8,sink_20] -7.7174085193906649e+01
flow[sink_25,sink_20] 1.9617342396890731e+02
flow[sink_25,sink_15] -6.6375058675785482e+01
flow[sink_15,sink_29] 0
flow[sink_29,sink_28] 1.6354166666667879e+01
flow[sink_29,sink_2] 9.9083392009118825e+01
flow[sink_2,sink_15] 8.2729225342452153e+01
flow[sink_29,innode_7] -1.3179172534245336e+02
flow[innode_4,sink_19] 8.8813931041073360e+01
flow[sink_19,innode_3] 3.5360059162211279e+01
flow[innode_4,innode_5] 1.6354166666679703e+01
flow[sink_27,innode_5] -1.6354166666679703e+01
flow[sink_27,sink_19] 0
flow[sink_10,sink_11] 3.2708333333333641e+01
flow[sink_10,innode_2] -3.7099705212195332e+01
flow[sink_10,innode_3] -3.5360059162211279e+01
flow[innode_6,sink_25] -9.31106895892703
flow[sink_11,innode_1] 1.6354166666666970e+01
flow[sink_19,innode_2] 3.7099705212195332e+01
flow[source_3,innode_4] 1.0516809770775306e+02
flow[source_2,innode_7] 1.3179172534245336e+02
flow[sink_3,innode_8] 1.5546360091871486e+02
pressure[innode_1] 7.5302597399471082e+01
pressure[innode_2] 7.7415171354340032e+01
pressure[innode_3] 7.7336870507417657e+01
pressure[innode_4] 81.01325
pressure[innode_5] 8.1002000741808772e+01
pressure[innode_6] 7.4386367099199489e+01
pressure[innode_7] 81.01325
pressure[innode_8] 80.3842631080798
pressure[source_1] 81.01325
pressure[source_2] 81.01325
pressure[source_3] 81.01325
pressure[sink_1] 1.0132500000000002e+00
pressure[sink_2] 7.4978443498599020e+01
pressure[sink_3] 80.3842631080798
pressure[sink_4] 2.0088695553011512e+01
pressure[sink_5] 1.6356600604074426e+01
pressure[sink_6] 2.9291709485701416e+00
pressure[sink_7] 3.1164748401946012e+00
pressure[sink_8] 2.2241274234943035e+01
pressure[sink_9] 5.6278831902364415e+00
pressure[sink_10] 7.5454298707074628e+01
pressure[sink_11] 7.5302597399471082e+01
pressure[sink_12] 1.01325
pressure[sink_13] 74.3350367320531
pressure[sink_14] 7.4347640955340381e+01
pressure[sink_15] 7.4708350811083491e+01
pressure[sink_16] 74.2809475646534
pressure[sink_17] 1.9946380702647360e+01
pressure[sink_18] 3.8238438996826423e+00
pressure[sink_19] 7.7415171354340032e+01
pressure[sink_20] 2.7619222652880858e+01
pressure[sink_21] 1.01325
pressure[sink_22] 1.9525493283446091e+00
pressure[sink_23] 80.21954509642
pressure[sink_24] 1.01325
pressure[sink_25] 7.4386367099199489e+01
pressure[sink_26] 9.59089898121673
pressure[sink_27] 8.0866291377726043e+01
pressure[sink_28] 7.7193055366963051e+01
pressure[sink_29] 7.7488337640580227e+01
interdiction[source_1,sink_3] 0
interdiction[innode_1,sink_16] 0
interdiction[innode_6,sink_13] 0
interdiction[sink_13,sink_14] 0
interdiction[sink_14,sink_10] 0
interdiction[sink_25,sink_26] 1
interdiction[sink_26,sink_9] 0
interdiction[sink_9,sink_18] 0
interdiction[sink_26,sink_4] 0
interdiction[sink_4,sink_20] 0
interdiction[sink_18,sink_6] 0
interdiction[sink_25,innode_8] 0
interdiction[sink_6,sink_7] 0
interdiction[sink_6,sink_22] 0
interdiction[sink_7,sink_24] 0
interdiction[sink_22,sink_1] 0
interdiction[sink_24,sink_21] 0
interdiction[sink_21,sink_12] 0
interdiction[sink_7,sink_5] 0
interdiction[sink_5,sink_17] 0
interdiction[sink_17,sink_4] 0
interdiction[sink_17,sink_8] 0
interdiction[sink_3,sink_23] 0
interdiction[sink_8,sink_20] 0
interdiction[sink_25,sink_20] 0
interdiction[sink_25,sink_15] 0
interdiction[sink_15,sink_29] 1
interdiction[sink_29,sink_28] 0
interdiction[sink_29,sink_2] 0
interdiction[sink_2,sink_15] 0
interdiction[sink_29,innode_7] 0
interdiction[innode_4,sink_19] 0
interdiction[sink_19,innode_3] 0
interdiction[innode_4,innode_5] 0
interdiction[sink_27,innode_5] 0
interdiction[sink_27,sink_19] 1
interdiction[sink_10,sink_11] 0
interdiction[sink_10,innode_2] 0
interdiction[sink_10,innode_3] 0
interdiction[innode_6,sink_25] 0
interdiction[sink_11,innode_1] 0
interdiction[sink_19,innode_2] 0
interdiction[source_3,innode_4] 0
interdiction[source_2,innode_7] 0
interdiction[sink_3,innode_8] 0
WCcheckFlow[source_1,sink_3] 39
WCcheckFlow[innode_1,sink_16] 1
WCcheckFlow[innode_6,sink_13] 13
WCcheckFlow[sink_13,sink_14] 12
WCcheckFlow[sink_14,sink_10] 11
WCcheckFlow[sink_25,sink_26] 0
WCcheckFlow[sink_26,sink_9] 12
WCcheckFlow[sink_9,sink_18] 11
WCcheckFlow[sink_26,sink_4] -13
WCcheckFlow[sink_4,sink_20] -14
WCcheckFlow[sink_18,sink_6] 10
WCcheckFlow[sink_25,innode_8] -36
WCcheckFlow[sink_6,sink_7] 7
WCcheckFlow[sink_6,sink_22] 2
WCcheckFlow[sink_7,sink_24] 3
WCcheckFlow[sink_22,sink_1] 1
WCcheckFlow[sink_24,sink_21] 2
WCcheckFlow[sink_21,sink_12] 1
WCcheckFlow[sink_7,sink_5] 3
WCcheckFlow[sink_5,sink_17] 2
WCcheckFlow[sink_17,sink_4] 0
WCcheckFlow[sink_17,sink_8] 1
WCcheckFlow[sink_3,sink_23] 1
WCcheckFlow[sink_8,sink_20] 0
WCcheckFlow[sink_25,sink_20] 15
WCcheckFlow[sink_25,sink_15] 6
WCcheckFlow[sink_15,sink_29] 0
WCcheckFlow[sink_29,sink_28] 1
WCcheckFlow[sink_29,sink_2] -4
WCcheckFlow[sink_2,sink_15] -5
WCcheckFlow[sink_29,innode_7] 2
WCcheckFlow[innode_4,sink_19] -4
WCcheckFlow[sink_19,innode_3] -5
WCcheckFlow[innode_4,innode_5] 2
WCcheckFlow[sink_27,innode_5] -1
WCcheckFlow[sink_27,sink_19] 0
WCcheckFlow[sink_10,sink_11] 3
WCcheckFlow[sink_10,innode_2] 1
WCcheckFlow[sink_10,innode_3] 6
WCcheckFlow[innode_6,sink_25] -14
WCcheckFlow[sink_11,innode_1] 2
WCcheckFlow[sink_19,innode_2] 0
WCcheckFlow[source_3,innode_4] -1
WCcheckFlow[source_2,innode_7] -1
WCcheckFlow[sink_3,innode_8] 37
